(assert (forall ((pkt_0_4_6_0  Int  )(state_group_0_state_0_5_7_0  Int  )(state_group_0_state_1_6_8_0  Int  )) (let ((_n0 state_group_0_state_1_6_8_0 ))
(let ((_n1 state_group_0_state_0_5_7_0 ))
(let ((_n2 true ))
(let ((_n3 (+   _n1   (ite  _n2  1 0) ) ))
(let ((_n4 (ite (=  _n0  0)  _n3   _n1  ) ))
(let ((_n5 999 ))
(let ((_n6 (=   _n1   _n5 ) ))
(let ((_n7 false ))
(let ((_n8 (ite (=  _n1  999)  (ite  _n7  1 0)   _n0  ) ))
(let ((_n9 (<   _n8   (ite  _n2  1 0) ) ))
(let ((_n10 (ite (=  _n1  999)  _n7   _n9  ) ))
(let ((_n11 1001 ))
(let ((_n12 (not  _n10 ) ))
(let ((_n13 (or   _n12   _n6 ) ))
(let ((_n14 (ite  _n13   (ite  _n7  1 0)   _n1  ) ))
(let ((_n15 (=   _n14   _n11 ) ))
(let ((_n16 (not  _n15 ) ))
(let ((_n17 (not  _n13 ) ))
(let ((_n18 (and   _n17   _n16 ) ))
(let ((_n19 (or   _n18   _n13 ) ))
(let ((_n20 pkt_0_4_6_0 ))
(let ((_n21 (ite  _n19   (ite  _n7  1 0)   _n20  ) ))
(let ((_n22 1000 ))
(let ((_n23 (ite  _n19   (ite  _n7  1 0)   _n22  ) ))
(let ((_n24 (+   _n23   _n21 ) ))
(let ((_n25 (ite  _n19   (ite  _n7  1 0)   _n24  ) ))
(let ((_n26 (+   _n1   _n25 ) ))
(let ((_n27 (not  _n18 ) ))
(let ((_n28 (or   _n27   _n13 ) ))
(let ((_n29 (not  _n28 ) ))
(let ((_n30 (+   _n1   (ite  _n29  1 0) ) ))
(let ((_n31 (ite (=  (ite  _n18  1 0)  1)  _n30   _n26  ) ))
(let ((_n32 (ite (=  (ite  _n10  1 0)  1)  _n31   _n1  ) ))
(let ((_n33 3 ))
(let ((_n34 (ite (=  _n1  999)  _n20   (ite  _n7  1 0)  ) ))
(let ((_n35 (=   _n34   _n33 ) ))
(let ((_n36 (ite (=  _n1  999)  _n35   _n7  ) ))
(let ((_n37 (not  _n6 ) ))
(let ((_n38 (or   _n36   _n37 ) ))
(let ((_n39 (ite  _n38   (ite  _n7  1 0)   _n20  ) ))
(let ((_n40 (not  _n38 ) ))
(let ((_n41 (+   (ite  _n40  1 0)   _n39 ) ))
(let ((_n42 (ite  _n38   (ite  _n7  1 0)   _n41  ) ))
(let ((_n43 (+   _n1   _n42 ) ))
(let ((_n44 (and   _n36   _n6 ) ))
(let ((_n45 2 ))
(let ((_n46 (ite  _n44   _n45   (ite  _n7  1 0)  ) ))
(let ((_n47 (ite  _n44   _n20   (ite  _n7  1 0)  ) ))
(let ((_n48 (+   _n47   _n46 ) ))
(let ((_n49 (ite  _n44   _n48   (ite  _n7  1 0)  ) ))
(let ((_n50 (+   _n1   _n49 ) ))
(let ((_n51 (ite (=  (ite  _n36  1 0)  1)  _n50   _n43  ) ))
(let ((_n52 (ite (=  (ite  _n6  1 0)  1)  _n51   _n32  ) ))
(let ((_n53 (=   _n52   _n4 ) ))
(let ((_n55 (ite (=  _n1  999)  (ite  _n2  1 0)   _n0  ) ))
(let ((_n56 (ite (=  _n0  0)  _n55   _n0  ) ))
(let ((_n57 (ite  _n19   (ite  _n7  1 0)   _n45  ) ))
(let ((_n58 (+   _n0   _n57 ) ))
(let ((_n59 (ite (=  (ite  _n18  1 0)  1)  _n0   _n58  ) ))
(let ((_n60 (ite (=  (ite  _n10  1 0)  1)  _n59   _n0  ) ))
(let ((_n61 (+   _n0   (ite  _n40  1 0) ) ))
(let ((_n62 997 ))
(let ((_n63 (ite  _n44   _n62   (ite  _n7  1 0)  ) ))
(let ((_n64 (+   _n63   _n63 ) ))
(let ((_n65 (ite  _n44   _n64   (ite  _n7  1 0)  ) ))
(let ((_n66 (+   _n0   _n65 ) ))
(let ((_n67 (ite (=  (ite  _n36  1 0)  1)  _n66   _n61  ) ))
(let ((_n68 (ite (=  (ite  _n6  1 0)  1)  _n67   _n60  ) ))
(let ((_n69 (=   _n68   _n56 ) ))
(let ((_n71 (ite (=  _n20  0)  _n20   (ite  _n7  1 0)  ) ))
(let ((_n72 (ite (=  _n20  0)  _n71   _n20  ) ))
(let ((_n73 (=   _n72   _n20 ) ))
(implies  (and (and (>= state_group_0_state_1_6_8_0 0) (< state_group_0_state_1_6_8_0 1024 ))  (and (and (>= state_group_0_state_0_5_7_0 0) (< state_group_0_state_0_5_7_0 1024 ))  (and (>= pkt_0_4_6_0 0) (< pkt_0_4_6_0 1024 )) ) )   (and  _n53  _n69  _n73 )  )))))))))))))))))))))))))))))))))))))))))))))))))))))))))))))))))))))))))))
(check-sat)
(get-model)
(exit)